
Gurobi 10.0.1 (win64) logging started Sun May  7 15:27:45 2023

Set parameter LogFile to value "logFiles/A-2L-D/A-2L-6U-8F-15V-120D-basic.log"
Gurobi Optimizer version 10.0.1 build v10.0.1rc0 (win64)

CPU model: Intel(R) Core(TM) i7-10700 CPU @ 2.90GHz, instruction set [SSE2|AVX|AVX2]
Thread count: 8 physical cores, 16 logical processors, using up to 16 threads

Optimize a model with 30697 rows, 337058 columns and 2103455 nonzeros
Model fingerprint: 0x97a36610
Variable types: 1742 continuous, 335316 integer (335316 binary)
Coefficient statistics:
  Matrix range     [1e+00, 2e+05]
  Objective range  [4e+01, 3e+07]
  Bounds range     [1e+00, 1e+00]
  RHS range        [1e+00, 3e+06]
Presolve removed 17398 rows and 37416 columns
Presolve time: 3.62s
Presolved: 13299 rows, 299642 columns, 1688058 nonzeros
Variable types: 1750 continuous, 297892 integer (297874 binary)
Deterministic concurrent LP optimizer: primal simplex, dual simplex, and barrier
Showing barrier log only...

Root barrier log...

Ordering time: 1.08s

Barrier statistics:
 AA' NZ     : 7.544e+05
 Factor NZ  : 3.543e+06 (roughly 150 MB of memory)
 Factor Ops : 2.737e+09 (less than 1 second per iteration)
 Threads    : 5

                  Objective                Residual
Iter       Primal          Dual         Primal    Dual     Compl     Time
   0  -1.76477445e+16  1.47363678e+12  2.11e+09 6.12e+04  1.49e+11     7s
   1  -3.42809375e+15  2.16004855e+12  4.13e+08 2.12e+05  2.93e+10     7s
   2  -8.87506242e+13  1.49543538e+12  1.08e+07 1.63e-09  7.73e+08     7s
   3  -3.88555970e+12  6.54173016e+11  4.73e+05 2.10e-09  3.49e+07     8s
   4  -6.77850638e+11  2.58848764e+11  8.26e+04 1.40e-09  6.32e+06     8s
   5  -2.28051595e+11  1.88767610e+11  2.78e+04 9.31e-10  2.25e+06     8s
   6  -1.53932628e+11  1.07986205e+11  1.88e+04 1.05e-09  1.40e+06     8s
   7  -6.29335287e+10  7.57605652e+10  7.76e+03 1.16e-09  6.01e+05     9s
   8  -1.30076075e+10  3.37059490e+10  1.70e+03 7.10e-09  1.47e+05     9s
   9  -4.00324605e+09  1.37891192e+10  6.08e+02 3.73e-09  5.02e+04     9s
  10  -1.47583304e+09  5.86115965e+09  3.04e+02 2.50e-09  2.14e+04    10s
  11  -5.29989720e+08  4.03985288e+09  1.91e+02 1.82e-09  1.32e+04    10s
  12   2.22825484e+08  3.56768047e+09  1.02e+02 1.86e-09  8.57e+03    10s
  13   4.50425615e+08  2.93449725e+09  7.55e+01 5.00e-09  6.35e+03    10s
  14   5.39590406e+08  2.46293125e+09  6.51e+01 4.44e-09  5.02e+03    11s
  15   6.50870371e+08  2.11139300e+09  5.25e+01 4.19e-09  3.88e+03    11s
  16   7.73259961e+08  1.82533261e+09  3.88e+01 6.91e-09  2.83e+03    11s
  17   8.62196659e+08  1.61141731e+09  2.88e+01 7.45e-09  2.04e+03    12s
  18   9.16795729e+08  1.51505602e+09  2.29e+01 7.45e-09  1.62e+03    12s
  19   9.40074299e+08  1.47587639e+09  2.07e+01 7.93e-09  1.44e+03    12s
  20   9.68578662e+08  1.42255106e+09  1.78e+01 1.12e-08  1.20e+03    13s
  21   1.00878252e+09  1.36744147e+09  1.36e+01 8.28e-09  9.12e+02    13s
  22   1.01106850e+09  1.34846904e+09  1.33e+01 1.16e-08  8.63e+02    13s
  23   1.07008597e+09  1.30016593e+09  6.50e+00 9.02e-09  5.27e+02    14s
  24   1.08411055e+09  1.29638395e+09  5.14e+00 1.22e-08  4.66e+02    14s
  25   1.09604087e+09  1.25366249e+09  3.95e+00 1.21e-08  3.37e+02    15s
  26   1.12208085e+09  1.21895536e+09  1.16e+00 8.85e-09  1.80e+02    15s
  27   1.12753670e+09  1.19920693e+09  7.32e-01 1.35e-08  1.28e+02    15s
  28   1.12819830e+09  1.18708980e+09  6.84e-01 1.48e-08  1.05e+02    16s
  29   1.12831427e+09  1.18477543e+09  6.67e-01 1.52e-08  1.00e+02    16s
  30   1.12902831e+09  1.17797783e+09  6.11e-01 1.62e-08  8.63e+01    16s
  31   1.13084978e+09  1.16240119e+09  4.59e-01 1.37e-08  5.42e+01    16s
  32   1.13244582e+09  1.15622999e+09  3.60e-01 1.12e-08  4.03e+01    17s
  33   1.13287444e+09  1.15280282e+09  3.38e-01 1.65e-08  3.34e+01    17s
  34   1.13610673e+09  1.15010081e+09  1.58e-01 1.36e-08  2.33e+01    18s
  35   1.13698310e+09  1.14788017e+09  1.26e-01 8.33e-09  1.80e+01    18s
  36   1.13794922e+09  1.14670341e+09  1.00e-01 9.61e-09  1.44e+01    18s
  37   1.13895998e+09  1.14584176e+09  7.50e-02 1.12e-08  1.13e+01    19s
  38   1.13938391e+09  1.14566597e+09  6.64e-02 1.32e-08  1.04e+01    19s
  39   1.13998107e+09  1.14488176e+09  5.51e-02 1.31e-08  8.06e+00    19s
  40   1.14079792e+09  1.14448074e+09  3.98e-02 1.49e-08  6.06e+00    20s
  41   1.14134250e+09  1.14432216e+09  3.10e-02 1.31e-08  4.91e+00    20s
  42   1.14169577e+09  1.14407633e+09  2.52e-02 1.12e-08  3.92e+00    20s
  43   1.14189473e+09  1.14389583e+09  2.21e-02 1.49e-08  3.29e+00    21s
  44   1.14204753e+09  1.14371609e+09  1.96e-02 1.20e-08  2.74e+00    21s
  45   1.14252357e+09  1.14360522e+09  1.18e-02 1.29e-08  1.78e+00    21s
  46   1.14266037e+09  1.14353078e+09  9.69e-03 1.44e-08  1.43e+00    22s
  47   1.14275179e+09  1.14348527e+09  8.15e-03 1.49e-08  1.21e+00    22s
  48   1.14294919e+09  1.14339920e+09  4.93e-03 1.13e-08  7.41e-01    22s
  49   1.14303559e+09  1.14333978e+09  3.57e-03 1.10e-08  5.01e-01    23s
  50   1.14314504e+09  1.14330985e+09  1.86e-03 1.21e-08  2.72e-01    23s
  51   1.14320381e+09  1.14328335e+09  9.26e-04 9.25e-09  1.31e-01    23s
  52   1.14323751e+09  1.14327587e+09  4.06e-04 9.38e-09  6.33e-02    24s
  53   1.14324999e+09  1.14327370e+09  2.19e-04 8.55e-09  3.92e-02    24s
  54   1.14325793e+09  1.14326809e+09  1.03e-04 7.45e-09  1.68e-02    24s
  55   1.14326303e+09  1.14326723e+09  2.72e-05 9.00e-09  6.98e-03    24s
  56   1.14326464e+09  1.14326582e+09  6.95e-06 8.09e-09  1.96e-03    25s
  57   1.14326514e+09  1.14326532e+09  9.05e-07 1.64e-08  2.97e-04    25s
  58   1.14326522e+09  1.14326524e+09  4.04e-08 9.94e-09  2.52e-05    25s
  59   1.14326523e+09  1.14326523e+09  1.98e-09 1.49e-08  1.17e-09    25s

Barrier solved model in 59 iterations and 25.43 seconds (20.50 work units)
Optimal objective 1.14326523e+09


Root crossover log...

    8670 DPushes remaining with DInf 0.0000000e+00                26s
       0 DPushes remaining with DInf 0.0000000e+00                26s

    1061 PPushes remaining with PInf 0.0000000e+00                26s
       0 PPushes remaining with PInf 0.0000000e+00                26s

  Push phase complete: Pinf 0.0000000e+00, Dinf 1.0021360e+01     26s


Root simplex log...

Iteration    Objective       Primal Inf.    Dual Inf.      Time
    9717    1.1432652e+09   0.000000e+00   1.002136e+01     26s
    9723    1.1432652e+09   0.000000e+00   0.000000e+00     26s
Concurrent spin time: 0.19s

Solved with barrier
    9724    1.1432652e+09   0.000000e+00   0.000000e+00     26s
Extra simplex iterations after uncrush: 1

Root relaxation: objective 1.143265e+09, 9724 iterations, 21.95 seconds (10.89 work units)

    Nodes    |    Current Node    |     Objective Bounds      |     Work
 Expl Unexpl |  Obj  Depth IntInf | Incumbent    BestBd   Gap | It/Node Time

     0     0 1.1433e+09    0  317          - 1.1433e+09      -     -   28s
     0     0 1.1431e+09    0  291          - 1.1431e+09      -     -   38s
     0     0 1.1430e+09    0  297          - 1.1430e+09      -     -   58s
     0     0 1.1430e+09    0  311          - 1.1430e+09      -     -   63s
     0     0 1.1430e+09    0  308          - 1.1430e+09      -     -   63s
     0     0 1.1430e+09    0  333          - 1.1430e+09      -     -   71s
     0     0 1.1430e+09    0  346          - 1.1430e+09      -     -   77s
     0     0 1.1430e+09    0  349          - 1.1430e+09      -     -   78s
     0     0 1.1430e+09    0  352          - 1.1430e+09      -     -   86s
     0     0 1.1430e+09    0  366          - 1.1430e+09      -     -  104s
     0     0 1.1430e+09    0  360          - 1.1430e+09      -     -  107s
     0     0 1.1430e+09    0  351          - 1.1430e+09      -     -  109s
     0     0 1.1430e+09    0  360          - 1.1430e+09      -     -  110s
     0     0 1.1429e+09    0  349          - 1.1429e+09      -     -  118s
     0     0 1.1429e+09    0  347          - 1.1429e+09      -     -  123s
     0     0 1.1429e+09    0  360          - 1.1429e+09      -     -  124s
     0     0 1.1429e+09    0  338          - 1.1429e+09      -     -  130s
     0     0 1.1429e+09    0  370          - 1.1429e+09      -     -  134s
     0     0 1.1429e+09    0  363          - 1.1429e+09      -     -  135s
     0     0 1.1429e+09    0  345          - 1.1429e+09      -     -  139s
     0     0 1.1429e+09    0  337          - 1.1429e+09      -     -  141s
     0     0 1.1429e+09    0  354          - 1.1429e+09      -     -  145s
     0     0 1.1429e+09    0  347          - 1.1429e+09      -     -  148s
     0     0 1.1429e+09    0  328          - 1.1429e+09      -     -  149s
     0     0 1.1429e+09    0  319          - 1.1429e+09      -     -  160s
H    0     0                    1.126091e+09 1.1429e+09  1.49%     -  180s
H    0     0                    1.126119e+09 1.1429e+09  1.49%     -  185s
H    0     0                    1.126364e+09 1.1429e+09  1.47%     -  198s
     0     2 1.1429e+09    0  305 1.1264e+09 1.1429e+09  1.47%     -  202s
     1     4 1.1429e+09    1  313 1.1264e+09 1.1429e+09  1.47% 15332  212s
     3     8 1.1429e+09    2  335 1.1264e+09 1.1429e+09  1.47%  5867  223s
     7    16 1.1429e+09    3  321 1.1264e+09 1.1429e+09  1.47%  3006  256s
    15    24 1.1429e+09    4  355 1.1264e+09 1.1429e+09  1.47%  1995  290s
    23    32 1.1429e+09    5  353 1.1264e+09 1.1429e+09  1.47%  1579  321s
    31    40 1.1429e+09    6  331 1.1264e+09 1.1429e+09  1.47%  1457  367s
H   32    40                    1.127762e+09 1.1429e+09  1.34%  1411  368s

Cutting planes:
  Cover: 37
  Implied bound: 53
  Clique: 3
  MIR: 31
  Flow cover: 116
  GUB cover: 4
  Network: 5
  RLT: 16
  Relax-and-lift: 26

Explored 39 nodes (106330 simplex iterations) in 368.28 seconds (359.41 work units)
Thread count was 16 (of 16 available processors)

Solution count 4: 1.12776e+09 1.12636e+09 1.12612e+09 1.12609e+09 

Solve interrupted
Best objective 1.127761864228e+09, best bound 1.142915732194e+09, gap 1.3437%
